traveling_salesman_problem.dat
data;

param n := 6;
/*Número de nós*/

param : E : c :=
    1  2   509
    1  4   1024
    1  6   604
    2  3   203
    2  5   712
    3  4   308
    3  6   913
    4  5   334
    5  6   229
    6  1   604
;

end;